certificates/rado_a7_c285_N41.drat
-41 0
39 0
-27 0
25 0
29 0
-13 0
-37 0
-17 0
11 0
15 0
35 0
1 0
19 0
-23 0
-3 0
-40 0
-7 0
-31 0
-38 0
21 0
4 0
18 0
28 0
5 0
36 0
0
